language ESSENCE' 1.0

letting boxes_PartitionAsSet_ExplicitR6_ExplicitVarSizeWithDummy be
        [[1, 2, 4, 7, 7, 7; int(1..6)], [3, 7, 7, 7, 7, 7; int(1..6)], [5, 7, 7, 7, 7, 7; int(1..6)],
         [6, 7, 7, 7, 7, 7; int(1..6)];
             int(1..4)]
$ Visualisation for boxes_PartitionAsSet_ExplicitR6_ExplicitVarSizeWithDummy
$ 1 2 4 7 7 7
$ 3 7 7 7 7 7
$ 5 7 7 7 7 7
$ 6 7 7 7 7 7

